% File represents an instance of a Composite Structure problem to be solved by a CP framework
% Created on 2025-03-25 14:06:14.909
T = 52;
n = 36;
m = 60;
edges = [(2, 1),
(8, 7),
(14, 13),
(20, 19),
(26, 25),
(32, 31),
(3, 2),
(9, 8),
(15, 14),
(21, 20),
(27, 26),
(33, 32),
(3, 4),
(9, 10),
(16, 15),
(22, 21),
(27, 28),
(33, 34),
(5, 4),
(11, 10),
(17, 16),
(23, 22),
(29, 28),
(35, 34),
(6, 5),
(12, 11),
(17, 18),
(23, 24),
(30, 29),
(36, 35),
(7, 1),
(13, 7),
(13, 19),
(25, 19),
(31, 25),
(8, 2),
(8, 14),
(14, 20),
(26, 20),
(32, 26),
(9, 3),
(9, 15),
(15, 21),
(27, 21),
(33, 27),
(10, 4),
(16, 10),
(16, 22),
(22, 28),
(34, 28),
(5, 11),
(17, 11),
(23, 17),
(23, 29),
(35, 29),
(6, 12),
(12, 18),
(24, 18),
(30, 24),
(36, 30)];
counts = [|10, 2, 8, 2,
|12, 4, 8, 2,
|14, 4, 14, 2,
|10, 4, 14, 2,
|16, 4, 14, 6,
|20, 6, 14, 10,
|10, 4, 8, 2,
|12, 6, 12, 4,
|14, 6, 14, 8,
|14, 4, 14, 2,
|16, 4, 14, 4,
|16, 4, 14, 10,
|10, 6, 8, 2,
|10, 6, 12, 2,
|14, 6, 14, 2,
|16, 6, 14, 2,
|16, 6, 14, 4,
|16, 4, 14, 2,
|6, 2, 6, 2,
|10, 2, 12, 2,
|10, 2, 14, 2,
|16, 4, 14, 2,
|16, 6, 16, 4,
|16, 6, 16, 2,
|12, 2, 8, 4,
|14, 2, 16, 4,
|16, 2, 16, 4,
|16, 2, 14, 2,
|16, 6, 16, 2,
|18, 8, 18, 6,
|16, 4, 12, 4,
|16, 4, 16, 6,
|16, 6, 16, 6,
|16, 6, 16, 2,
|16, 6, 18, 2,
|18, 8, 18, 8|];
